(declare-datatypes ((Unit 0)) (((unit))))
(declare-datatypes ((Bits 0)) (((Bits (len (_ BitVec 8)) (contents (_ BitVec 64))))))
(declare-datatypes ((Zfloat_bits 0)) (((Zfloat_bits (Zfloat_bits_zexp Bits) (Zfloat_bits_zmantissa Bits) (Zfloat_bits_zsign (_ BitVec 1))))))
(declare-datatypes ((Zexception 0)) (((z__dummy_exnz3 (unz__dummy_exnz3 Unit)))))
(declare-const zz41587/1 (_ BitVec 64))
(declare-const zz41588/1 (_ BitVec 64))
(define-const zz41589/2 (_ BitVec 64) zz41587/1)
(define-const zz41591/2 (_ BitVec 64) zz41588/1)
(define-const zz41600/2 (_ BitVec 64) (ite (bvslt ((_ sign_extend 0) zz41589/2) ((_ sign_extend 0) zz41591/2)) zz41589/2 zz41591/2))
(assert (or (and (not (= zz41600/2 zz41589/2)) (not (= zz41600/2 zz41591/2))) (bvsgt ((_ sign_extend 0) zz41600/2) ((_ sign_extend 0) zz41589/2)) (bvsgt ((_ sign_extend 0) zz41600/2) ((_ sign_extend 0) zz41591/2))))
(check-sat)
